(declare-fun ExpandObjSwitcher () Real)
(declare-fun Constructed_Argument_t () String)
(declare-fun CreateAsClass () Bool)
(declare-fun |0 Fill 0| () String)
(declare-fun |0 Fill 1| () String)
(declare-fun |0 Fill 2| () String)
(declare-fun |0 Fill 3| () String)
(declare-fun |0 Fill 6| () String)
(declare-fun |0 Fill 5| () String)
(declare-fun |0 Fill 4| () String)
(declare-fun Constructed_Argument () String)
(declare-fun |IsMatch_/BSx1BBS[BSd+m/_0| () Bool)
(declare-fun |IsMatch_/BSx1BBS[BSd+m/_1| () Bool)
(declare-fun Constructed_Argument_2_t () String)
(declare-fun Constructed_Argument_3_t () String)
(declare-fun Constructed_Argument_4_t () String)
(declare-fun Constructed_Argument_5_t () String)
(declare-fun Constructed_Argument_6_t () String)
(declare-fun Constructed_Argument_7_t () String)
(assert (= ExpandObjSwitcher 3.0))
(assert (= Constructed_Argument_t "string"))
(assert (not CreateAsClass))
(assert (let ((re!1 (re.++ ((_ re.capture 1) (re.* (str.to.re "."))) (re.++ (str.to.re "\u{1b}") (re.++ (str.to.re "[") (re.++ (re.+ (re.range "0" "9")) (re.++ (str.to.re "m") ((_ re.capture 2) (re.* (str.to.re ".")))))))))) (and (= |0 Fill 4| ((_ str.extract 1) Constructed_Argument re!1)) (= |0 Fill 5| ((_ str.extract 2) Constructed_Argument re!1)))))
(assert (str.in.re Constructed_Argument (re.++ (re.* (re.range "\x00" "\xff")) (str.to.re "\x1B[") (re.range "0" "9") (re.* (re.range "0" "9")) (str.to.re "m") (re.* (re.range "\x00" "\xff")))))
(declare-const replace_0_0 String)
(assert (= replace_0_0 (str.replace_re Constructed_Argument (re.++ (str.to.re "\u{1b}") (re.++ (str.to.re "[") (re.++ (re.+ (re.range "0" "9")) (str.to.re "m")))) "")))
(assert |IsMatch_/BSx1BBS[BSd+m/_0|)
(assert (not (str.in.re replace_0_0 (re.++ (re.* (re.range "\x00" "\xff")) (str.to.re "\x1B[") (re.range "0" "9") (re.* (re.range "0" "9")) (str.to.re "m") (re.* (re.range "\x00" "\xff"))))))
(assert (not |IsMatch_/BSx1BBS[BSd+m/_1|))
(assert (not (<= (+ (to_real (ite (<= (+ (str.len Constructed_Argument) (* (- 1) (ite (>= (+ (str.len |0 Fill 4|) (str.len |0 Fill 6|)) 0) (+ (str.len |0 Fill 4|) (str.len |0 Fill 6|)) (ite (>= (+ (str.len |0 Fill 4|) (str.len |0 Fill 6|) (str.len Constructed_Argument)) 0) (+ (str.len |0 Fill 4|) (str.len |0 Fill 6|) (str.len Constructed_Argument)) 0)))) 0) 0 (+ (str.len Constructed_Argument) (* (- 1) (ite (>= (+ (str.len |0 Fill 4|) (str.len |0 Fill 6|)) 0) (+ (str.len |0 Fill 4|) (str.len |0 Fill 6|)) (ite (>= (+ (str.len |0 Fill 4|) (str.len |0 Fill 6|) (str.len Constructed_Argument)) 0) (+ (str.len |0 Fill 4|) (str.len |0 Fill 6|) (str.len Constructed_Argument)) 0)))))) (to_real (ite (<= (str.len Constructed_Argument) 0) 0 (ite (>= (+ (str.len |0 Fill 4|) (* (- 1) (str.len Constructed_Argument))) 0) (str.len Constructed_Argument) (str.len |0 Fill 4|))))) 0.0)))
(assert (not (= Constructed_Argument_2_t "string")))
(assert (not (= Constructed_Argument_2_t "number")))
(assert (not (= Constructed_Argument_2_t "boolean")))
(assert (not (= Constructed_Argument_2_t "object")))
(assert (not (= Constructed_Argument_2_t "array_number")))
(assert (not (= Constructed_Argument_2_t "array_string")))
(assert (not (= Constructed_Argument_2_t "array_bool")))
(assert (not (= Constructed_Argument_2_t "null")))
(assert (not (<= (+ (to_real (ite (<= (+ (str.len Constructed_Argument) (* (- 1) (ite (>= (+ (str.len |0 Fill 4|) (str.len |0 Fill 6|)) 0) (+ (str.len |0 Fill 4|) (str.len |0 Fill 6|)) (ite (>= (+ (str.len |0 Fill 4|) (str.len |0 Fill 6|) (str.len Constructed_Argument)) 0) (+ (str.len |0 Fill 4|) (str.len |0 Fill 6|) (str.len Constructed_Argument)) 0)))) 0) 0 (+ (str.len Constructed_Argument) (* (- 1) (ite (>= (+ (str.len |0 Fill 4|) (str.len |0 Fill 6|)) 0) (+ (str.len |0 Fill 4|) (str.len |0 Fill 6|)) (ite (>= (+ (str.len |0 Fill 4|) (str.len |0 Fill 6|) (str.len Constructed_Argument)) 0) (+ (str.len |0 Fill 4|) (str.len |0 Fill 6|) (str.len Constructed_Argument)) 0)))))) (to_real (ite (<= (str.len Constructed_Argument) 0) 0 (ite (>= (+ (str.len |0 Fill 4|) (* (- 1) (str.len Constructed_Argument))) 0) (str.len Constructed_Argument) (str.len |0 Fill 4|))))) 1.0)))
(assert (not (= Constructed_Argument_3_t "string")))
(assert (not (= Constructed_Argument_3_t "number")))
(assert (not (= Constructed_Argument_3_t "boolean")))
(assert (not (= Constructed_Argument_3_t "object")))
(assert (not (= Constructed_Argument_3_t "array_number")))
(assert (not (= Constructed_Argument_3_t "array_string")))
(assert (not (= Constructed_Argument_3_t "array_bool")))
(assert (not (= Constructed_Argument_3_t "null")))
(assert (not (<= (+ (to_real (ite (<= (+ (str.len Constructed_Argument) (* (- 1) (ite (>= (+ (str.len |0 Fill 4|) (str.len |0 Fill 6|)) 0) (+ (str.len |0 Fill 4|) (str.len |0 Fill 6|)) (ite (>= (+ (str.len |0 Fill 4|) (str.len |0 Fill 6|) (str.len Constructed_Argument)) 0) (+ (str.len |0 Fill 4|) (str.len |0 Fill 6|) (str.len Constructed_Argument)) 0)))) 0) 0 (+ (str.len Constructed_Argument) (* (- 1) (ite (>= (+ (str.len |0 Fill 4|) (str.len |0 Fill 6|)) 0) (+ (str.len |0 Fill 4|) (str.len |0 Fill 6|)) (ite (>= (+ (str.len |0 Fill 4|) (str.len |0 Fill 6|) (str.len Constructed_Argument)) 0) (+ (str.len |0 Fill 4|) (str.len |0 Fill 6|) (str.len Constructed_Argument)) 0)))))) (to_real (ite (<= (str.len Constructed_Argument) 0) 0 (ite (>= (+ (str.len |0 Fill 4|) (* (- 1) (str.len Constructed_Argument))) 0) (str.len Constructed_Argument) (str.len |0 Fill 4|))))) 2.0)))
(assert (not (= Constructed_Argument_4_t "string")))
(assert (not (= Constructed_Argument_4_t "number")))
(assert (not (= Constructed_Argument_4_t "boolean")))
(assert (not (= Constructed_Argument_4_t "object")))
(assert (not (= Constructed_Argument_4_t "array_number")))
(assert (not (= Constructed_Argument_4_t "array_string")))
(assert (not (= Constructed_Argument_4_t "array_bool")))
(assert (not (= Constructed_Argument_4_t "null")))
(assert (not (<= (+ (to_real (ite (<= (+ (str.len Constructed_Argument) (* (- 1) (ite (>= (+ (str.len |0 Fill 4|) (str.len |0 Fill 6|)) 0) (+ (str.len |0 Fill 4|) (str.len |0 Fill 6|)) (ite (>= (+ (str.len |0 Fill 4|) (str.len |0 Fill 6|) (str.len Constructed_Argument)) 0) (+ (str.len |0 Fill 4|) (str.len |0 Fill 6|) (str.len Constructed_Argument)) 0)))) 0) 0 (+ (str.len Constructed_Argument) (* (- 1) (ite (>= (+ (str.len |0 Fill 4|) (str.len |0 Fill 6|)) 0) (+ (str.len |0 Fill 4|) (str.len |0 Fill 6|)) (ite (>= (+ (str.len |0 Fill 4|) (str.len |0 Fill 6|) (str.len Constructed_Argument)) 0) (+ (str.len |0 Fill 4|) (str.len |0 Fill 6|) (str.len Constructed_Argument)) 0)))))) (to_real (ite (<= (str.len Constructed_Argument) 0) 0 (ite (>= (+ (str.len |0 Fill 4|) (* (- 1) (str.len Constructed_Argument))) 0) (str.len Constructed_Argument) (str.len |0 Fill 4|))))) 3.0)))
(assert (not (= Constructed_Argument_5_t "string")))
(assert (not (= Constructed_Argument_5_t "number")))
(assert (not (= Constructed_Argument_5_t "boolean")))
(assert (not (= Constructed_Argument_5_t "object")))
(assert (not (= Constructed_Argument_5_t "array_number")))
(assert (not (= Constructed_Argument_5_t "array_string")))
(assert (not (= Constructed_Argument_5_t "array_bool")))
(assert (not (= Constructed_Argument_5_t "null")))
(assert (not (<= (+ (to_real (ite (<= (+ (str.len Constructed_Argument) (* (- 1) (ite (>= (+ (str.len |0 Fill 4|) (str.len |0 Fill 6|)) 0) (+ (str.len |0 Fill 4|) (str.len |0 Fill 6|)) (ite (>= (+ (str.len |0 Fill 4|) (str.len |0 Fill 6|) (str.len Constructed_Argument)) 0) (+ (str.len |0 Fill 4|) (str.len |0 Fill 6|) (str.len Constructed_Argument)) 0)))) 0) 0 (+ (str.len Constructed_Argument) (* (- 1) (ite (>= (+ (str.len |0 Fill 4|) (str.len |0 Fill 6|)) 0) (+ (str.len |0 Fill 4|) (str.len |0 Fill 6|)) (ite (>= (+ (str.len |0 Fill 4|) (str.len |0 Fill 6|) (str.len Constructed_Argument)) 0) (+ (str.len |0 Fill 4|) (str.len |0 Fill 6|) (str.len Constructed_Argument)) 0)))))) (to_real (ite (<= (str.len Constructed_Argument) 0) 0 (ite (>= (+ (str.len |0 Fill 4|) (* (- 1) (str.len Constructed_Argument))) 0) (str.len Constructed_Argument) (str.len |0 Fill 4|))))) 4.0)))
(assert (not (= Constructed_Argument_6_t "string")))
(assert (not (= Constructed_Argument_6_t "number")))
(assert (not (= Constructed_Argument_6_t "boolean")))
(assert (not (= Constructed_Argument_6_t "object")))
(assert (not (= Constructed_Argument_6_t "array_number")))
(assert (not (= Constructed_Argument_6_t "array_string")))
(assert (not (= Constructed_Argument_6_t "array_bool")))
(assert (not (= Constructed_Argument_6_t "null")))
(assert (not (<= (+ (to_real (ite (<= (+ (str.len Constructed_Argument) (* (- 1) (ite (>= (+ (str.len |0 Fill 4|) (str.len |0 Fill 6|)) 0) (+ (str.len |0 Fill 4|) (str.len |0 Fill 6|)) (ite (>= (+ (str.len |0 Fill 4|) (str.len |0 Fill 6|) (str.len Constructed_Argument)) 0) (+ (str.len |0 Fill 4|) (str.len |0 Fill 6|) (str.len Constructed_Argument)) 0)))) 0) 0 (+ (str.len Constructed_Argument) (* (- 1) (ite (>= (+ (str.len |0 Fill 4|) (str.len |0 Fill 6|)) 0) (+ (str.len |0 Fill 4|) (str.len |0 Fill 6|)) (ite (>= (+ (str.len |0 Fill 4|) (str.len |0 Fill 6|) (str.len Constructed_Argument)) 0) (+ (str.len |0 Fill 4|) (str.len |0 Fill 6|) (str.len Constructed_Argument)) 0)))))) (to_real (ite (<= (str.len Constructed_Argument) 0) 0 (ite (>= (+ (str.len |0 Fill 4|) (* (- 1) (str.len Constructed_Argument))) 0) (str.len Constructed_Argument) (str.len |0 Fill 4|))))) 5.0)))
(assert (not (= Constructed_Argument_7_t "string")))
(assert (not (= Constructed_Argument_7_t "number")))
(assert (not (= Constructed_Argument_7_t "boolean")))
(assert (not (= Constructed_Argument_7_t "object")))
(assert (not (= Constructed_Argument_7_t "array_number")))
(assert (not (= Constructed_Argument_7_t "array_string")))
(assert (not (= Constructed_Argument_7_t "array_bool")))
(assert (= Constructed_Argument_7_t "null"))
(check-sat)
